num_offers = 25;
num_halls = 10;
start=[11,24,56,51,49,9,44,56,59,13,24,79,32,51,33,75,30,10,5,44,6,43,44,37,23];
end=[89,96,64,64,64,69,85,94,73,18,62,82,82,95,38,88,43,23,67,97,43,78,73,65,90];
price=[2705,5736,899,172,614,1004,3104,3354,1276,400,2054,318,3001,3295,482,886,371,910,5209,4785,430,738,1347,2636,3842];
requirement=[204,319,440,589,495,989,445,803,267,515,746,865,866,973,770,633,657,412,864,423,288,339,839,682,262];
capacity=[775,834,689,837,987,874,898,854,279,780];
